Wheel 20
SECTION Graph
Nodes 20
Edges 38
E 1 2 7
E 1 3 25
E 1 4 48
E 1 5 26
E 1 6 13
E 1 7 43
E 1 8 2
E 1 9 19
E 1 10 17
E 1 11 15
E 1 12 23
E 1 13 43
E 1 14 25
E 1 15 24
E 1 16 31
E 1 17 6
E 1 18 41
E 1 19 50
E 1 20 10
E 2 3 41
E 2 20 28
E 3 21 10
E 4 5 26
E 5 6 17
E 6 7 9
E 7 8 28
E 8 9 15
E 9 10 16
E 10 11 44
E 11 12 12
E 12 13 49
E 13 14 14
E 14 15 40
E 15 16 14
E 16 17 42
E 17 18 11
E 18 19 41
E 19 20 40
END

SECTION Terminals
Terminals 5
T 18
T 12
T 14
T 4
T 16
END

EOF